p cnf 231
-5 -25
-6 -31
-7 -34
-8 -37
-9 -40
-10 -43
-11 -46
-12 -49
-13 -52
-14 -55
-15 -59
-16 -63
-17 -67
-18 -71
-19 -75
-20 -79
-21 -83
-22 -3
-22 4
3 -4 22
-23 1
-23 22
-1 -22 23
-24 5
-24 -22
-5 22 24
-25 -23
-25 -24
23 24 25
-26 1
-26 -5
-1 5 26
-27 22
-27 26
-22 -26 27
-28 13
-28 27
-13 -27 28
-29 6
-29 -27
-6 27 29
-30 -28
-30 -29
28 29 30
-31 4
-31 30
-4 -30 31
-32 6
-32 27
-6 -27 32
-33 7
-33 -27
-7 27 33
-34 -32
-34 -33
32 33 34
-35 7
-35 27
-7 -27 35
-36 8
-36 -27
-8 27 36
-37 -35
-37 -36
35 36 37
-38 8
-38 27
-8 -27 38
-39 9
-39 -27
-9 27 39
-40 -38
-40 -39
38 39 40
-41 9
-41 27
-9 -27 41
-42 10
-42 -27
-10 27 42
-43 -41
-43 -42
41 42 43
-44 10
-44 27
-10 -27 44
-45 11
-45 -27
-11 27 45
-46 -44
-46 -45
44 45 46
-47 11
-47 27
-11 -27 47
-48 12
-48 -27
-12 27 48
-49 -47
-49 -48
47 48 49
-50 12
-50 27
-12 -27 50
-51 13
-51 -27
-13 27 51
-52 -50
-52 -51
50 51 52
-53 2
-53 32
-2 -32 53
-54 14
-54 -32
-14 32 54
-55 -53
-55 -54
53 54 55
-56 15
-56 -32
-15 32 56
-57 2
-57 35
-2 -35 57
-58 -35
-58 56
35 -56 58
-59 -57
-59 -58
57 58 59
-60 16
-60 -32
-16 32 60
-61 2
-61 38
-2 -38 61
-62 -38
-62 60
38 -60 62
-63 -61
-63 -62
61 62 63
-64 17
-64 -32
-17 32 64
-65 2
-65 41
-2 -41 65
-66 -41
-66 64
41 -64 66
-67 -65
-67 -66
65 66 67
-68 18
-68 -32
-18 32 68
-69 2
-69 44
-2 -44 69
-70 -44
-70 68
44 -68 70
-71 -69
-71 -70
69 70 71
-72 19
-72 -32
-19 32 72
-73 2
-73 47
-2 -47 73
-74 -47
-74 72
47 -72 74
-75 -73
-75 -74
73 74 75
-76 20
-76 -32
-20 32 76
-77 2
-77 50
-2 -50 77
-78 -50
-78 76
50 -76 78
-79 -77
-79 -78
77 78 79
-80 21
-80 -32
-21 32 80
-81 2
-81 28
-2 -28 81
-82 -28
-82 80
28 -80 82
-83 -81
-83 -82
81 82 83
-84 6
-84 22
-6 -22 84
-85 14
-85 -15
-14 15 85
-86 16
-86 -17
-16 17 86
-87 18
-87 19
-18 -19 87
-88 -20
-88 21
20 -21 88
-89 85
-89 86
-85 -86 89
-90 87
-90 88
-87 -88 90
-91 89
-91 90
-89 -90 91
-92 84
-92 91
-84 -91 92
92
